# Solution for model r5_t18_m7_8 Batch Number: 4
# Finished Task: 18 / 18
# Makespan: 623.0, Total Distance: 410.0, Total Time: 1.0146
# R O S F Batch
0 0 12 0.0 0.0 -1
1 1 8 0.0 0.0 -1
2 2 6 0.0 0.0 -1
3 3 17 0.0 0.0 -1
4 4 9 0.0 0.0 -1
5 3 -1 457.0 479.0 2
6 2 10 307.0 332.0 0
7 0 20 515.0 553.0 2
8 1 22 293.0 314.0 0
9 4 15 283.0 307.0 0
10 2 14 356.0 386.0 0
11 2 -1 603.0 623.0 3
12 0 18 393.0 421.0 2
13 4 -1 516.0 553.0 2
14 2 11 485.0 515.0 2
15 4 16 361.0 392.0 1
16 4 21 423.0 446.0 1
17 3 5 307.0 336.0 0
18 0 7 442.0 472.0 2
19 1 -1 485.0 515.0 2
20 0 -1 567.0 603.0 3
21 4 13 455.0 485.0 1
22 1 19 376.0 405.0 2
